cspt/carrier_1_93.leadtime.lower_bound.mps
NAME          RCONMILP
ROWS
 N  00000000
 E  00000001
 E  00000002
 E  00000003
 E  00000004
 E  00000005
 E  00000006
 E  00000007
 E  00000008
 E  00000009
 E  00000010
 L  00000011
 L  00000012
 L  00000013
 L  00000014
 L  00000015
 L  00000016
 L  00000017
 L  00000018
 L  00000019
 L  00000020
COLUMNS
    INT1      'MARKER'                 'INTORG'
    00000000  00000000 2166666
    00000000  00000006 1
    00000000  00000007 1
    00000000  00000008 1
    00000000  00000011 1
    00000000  00000016 1
    00000001  00000000 4333333
    00000001  00000006 1
    00000001  00000007 1
    00000001  00000008 1
    00000001  00000012 1
    00000001  00000016 1
    00000002  00000000 6500000
    00000002  00000006 1
    00000002  00000007 1
    00000002  00000008 1
    00000002  00000013 1
    00000002  00000016 1
    00000003  00000000 8666666
    00000003  00000006 1
    00000003  00000007 1
    00000003  00000008 1
    00000003  00000014 1
    00000003  00000016 1
    00000004  00000000 10833333
    00000004  00000006 1
    00000004  00000007 1
    00000004  00000008 1
    00000004  00000015 1
    00000004  00000016 1
    00000005  00000000 833333
    00000005  00000007 1
    00000005  00000009 1
    00000005  00000010 1
    00000005  00000011 1
    00000005  00000017 1
    00000006  00000000 1666666
    00000006  00000007 1
    00000006  00000009 1
    00000006  00000010 1
    00000006  00000012 1
    00000006  00000017 1
    00000007  00000000 2500000
    00000007  00000007 1
    00000007  00000009 1
    00000007  00000010 1
    00000007  00000013 1
    00000007  00000017 1
    00000008  00000000 3333333
    00000008  00000007 1
    00000008  00000009 1
    00000008  00000010 1
    00000008  00000014 1
    00000008  00000017 1
    00000009  00000000 4166666
    00000009  00000007 1
    00000009  00000009 1
    00000009  00000010 1
    00000009  00000015 1
    00000009  00000017 1
    00000010  00000000 500000
    00000010  00000007 1
    00000010  00000009 1
    00000010  00000011 1
    00000010  00000018 1
    00000011  00000000 1000000
    00000011  00000007 1
    00000011  00000009 1
    00000011  00000012 1
    00000011  00000018 1
    00000012  00000000 1500000
    00000012  00000007 1
    00000012  00000009 1
    00000012  00000013 1
    00000012  00000018 1
    00000013  00000000 2000000
    00000013  00000007 1
    00000013  00000009 1
    00000013  00000014 1
    00000013  00000018 1
    00000014  00000000 2500000
    00000014  00000007 1
    00000014  00000009 1
    00000014  00000015 1
    00000014  00000018 1
    00000015  00000000 2666666
    00000015  00000001 1
    00000015  00000003 1
    00000015  00000004 1
    00000015  00000010 1
    00000015  00000011 1
    00000015  00000019 1
    00000016  00000000 5333333
    00000016  00000001 1
    00000016  00000003 1
    00000016  00000004 1
    00000016  00000010 1
    00000016  00000012 1
    00000016  00000019 1
    00000017  00000000 8000000
    00000017  00000001 1
    00000017  00000003 1
    00000017  00000004 1
    00000017  00000010 1
    00000017  00000013 1
    00000017  00000019 1
    00000018  00000000 10666666
    00000018  00000001 1
    00000018  00000003 1
    00000018  00000004 1
    00000018  00000010 1
    00000018  00000014 1
    00000018  00000019 1
    00000019  00000000 13333333
    00000019  00000001 1
    00000019  00000003 1
    00000019  00000004 1
    00000019  00000010 1
    00000019  00000015 1
    00000019  00000019 1
    00000020  00000000 2333333
    00000020  00000002 1
    00000020  00000003 1
    00000020  00000005 1
    00000020  00000011 1
    00000020  00000020 1
    00000021  00000000 4666666
    00000021  00000002 1
    00000021  00000003 1
    00000021  00000005 1
    00000021  00000012 1
    00000021  00000020 1
    00000022  00000000 7000000
    00000022  00000002 1
    00000022  00000003 1
    00000022  00000005 1
    00000022  00000013 1
    00000022  00000020 1
    00000023  00000000 9333333
    00000023  00000002 1
    00000023  00000003 1
    00000023  00000005 1
    00000023  00000014 1
    00000023  00000020 1
    00000024  00000000 11666666
    00000024  00000002 1
    00000024  00000003 1
    00000024  00000005 1
    00000024  00000015 1
    00000024  00000020 1
    INT1      'MARKER'                 'INTEND'
RHS
    RHS1      00000001 1
    RHS1      00000002 1
    RHS1      00000003 2
    RHS1      00000004 1
    RHS1      00000005 1
    RHS1      00000006 1
    RHS1      00000007 3
    RHS1      00000008 1
    RHS1      00000009 2
    RHS1      00000010 2
    RHS1      00000011 1
    RHS1      00000012 1
    RHS1      00000013 1
    RHS1      00000014 1
    RHS1      00000015 1
    RHS1      00000016 1
    RHS1      00000017 1
    RHS1      00000018 1
    RHS1      00000019 1
    RHS1      00000020 1
BOUNDS
 UI BOUND     00000000       1
 UI BOUND     00000001       1
 UI BOUND     00000002       1
 UI BOUND     00000003       1
 UI BOUND     00000004       1
 UI BOUND     00000005       1
 UI BOUND     00000006       1
 UI BOUND     00000007       1
 UI BOUND     00000008       1
 UI BOUND     00000009       1
 UI BOUND     00000010       1
 UI BOUND     00000011       1
 UI BOUND     00000012       1
 UI BOUND     00000013       1
 UI BOUND     00000014       1
 UI BOUND     00000015       1
 UI BOUND     00000016       1
 UI BOUND     00000017       1
 UI BOUND     00000018       1
 UI BOUND     00000019       1
 UI BOUND     00000020       1
 UI BOUND     00000021       1
 UI BOUND     00000022       1
 UI BOUND     00000023       1
 UI BOUND     00000024       1
 LI BOUND     00000000       0
 LI BOUND     00000001       0
 LI BOUND     00000002       0
 LI BOUND     00000003       0
 LI BOUND     00000004       0
 LI BOUND     00000005       0
 LI BOUND     00000006       0
 LI BOUND     00000007       0
 LI BOUND     00000008       0
 LI BOUND     00000009       0
 LI BOUND     00000010       0
 LI BOUND     00000011       0
 LI BOUND     00000012       0
 LI BOUND     00000013       0
 LI BOUND     00000014       0
 LI BOUND     00000015       0
 LI BOUND     00000016       0
 LI BOUND     00000017       0
 LI BOUND     00000018       0
 LI BOUND     00000019       0
 LI BOUND     00000020       0
 LI BOUND     00000021       0
 LI BOUND     00000022       0
 LI BOUND     00000023       0
 LI BOUND     00000024       0
ENDATA
