Numerical_Analysis/Instances_93/Original_request/carrier_1_93.leadtime.lower_bound.sol
00000002 Qj00g02 1
00000008 Qj01g03 1
00000014 Qj02g04 1
00000015 Qj03g00 1
00000021 Qj04g01 1
